unsat
(define-fun f ((x0 (BitVec 64)) (x1 (BitVec 64)) (x2 (BitVec 64))) (BitVec 64) (bvadd #b0000000000000000000000000000000000000000000000000000000000001000 (bvmul x1 #b0000000000000000000000000000000000000000000000000000000000010000)))
(define-fun f ((x0 (BitVec 64)) (x1 (BitVec 64)) (x2 (BitVec 64))) (BitVec 64) (bvadd #b0000000000000000000000000000000000000000000000000000000000001000 (bvmul x1 #b0000000000000000000000000000000000000000000000000000000000010000)))
int-arith22.sl running time : 1 m 5.724992084 s
times : 65.724992084
